p cnf 14 18
-1 2 5 6 10 11 12 0 
-1 2 5 6 10 11 13 0 
-2 1 5 6 10 11 14 0 
-3 -4 -5 1 2 6 10 11 14 0 
-3 -4 -6 1 2 5 10 11 14 0 
-7 -1 2 5 6 10 11 13 0 
-3 -1 2 5 6 10 11 12 0 
-8 -3 -7 -2 1 5 6 10 11 12 0 
-9 14 0 
-3 -1 2 5 6 10 11 14 0 
-8 -3 -7 -2 1 5 6 10 11 13 0 
-8 -3 -7 -2 1 5 6 10 11 14 0 
-4 -10 1 2 5 6 11 13 0 
-4 -10 1 2 5 6 11 12 0 
-3 -4 -5 1 2 6 10 11 12 0 
-3 -11 1 2 5 6 10 14 0 
-11 1 2 5 6 10 12 0 
-10 1 2 5 6 11 13 0 
